Welcome to the CBC MILP Solver 
Version: 2.10.10 
Build Date: Apr 19 2023 

command line - cbc /tmp/bccdcbb8ca0c4105811f5a6fce35d741-pulp.mps max sec 15 timeMode elapsed branch printingOptions all solution /tmp/bccdcbb8ca0c4105811f5a6fce35d741-pulp.sol (default strategy 1)
At line 2 NAME          MODEL
At line 3 ROWS
At line 17697 COLUMNS
At line 72500 RHS
At line 90193 BOUNDS
At line 97194 ENDATA
Problem MODEL has 17692 rows, 7000 columns and 53730 elements
Coin0008I MODEL read with 0 errors
seconds was changed from 1e+100 to 15
Option for timeMode changed from cpu to elapsed
Presolve 2840 (-14852) rows, 1903 (-5097) columns and 9008 (-44722) elements
Perturbing problem by 0.001% of 1 - largest nonzero change 0.00098452026 ( 0.19678443%) - largest zero change 0.00098396519
0  Obj 4 Primal inf 110.66162 (75) Dual inf 29.404461 (53)
131  Obj 16.973035 Primal inf 209.49833 (219)
262  Obj 16.967797 Primal inf 155.23388 (191)
393  Obj 16.963315 Primal inf 105.35167 (132)
524  Obj 16.961116 Primal inf 108.29207 (157)
655  Obj 16.959374 Primal inf 116.66109 (117)
786  Obj 16.956063 Primal inf 66.806675 (83)
917  Obj 16.955194 Primal inf 15.85326 (39)
933  Obj 16.95516
Optimal - objective value 17
After Postsolve, objective 17, infeasibilities - dual 0 (0), primal 0 (0)
Optimal objective 17 - 933 iterations time 0.022, Presolve 0.01
Option for printingOptions changed from normal to all
Total time (CPU seconds):       0.26   (Wallclock seconds):       0.11

Welcome to the CBC MILP Solver 
Version: 2.10.10 
Build Date: Apr 19 2023 

command line - cbc /tmp/0eef1357d89f4472ae0ad9a7225bd943-pulp.mps max sec 15 timeMode elapsed branch printingOptions all solution /tmp/0eef1357d89f4472ae0ad9a7225bd943-pulp.sol (default strategy 1)
At line 2 NAME          MODEL
At line 3 ROWS
At line 17697 COLUMNS
At line 86500 RHS
At line 104193 BOUNDS
At line 111194 ENDATA
Problem MODEL has 17692 rows, 7000 columns and 53730 elements
Coin0008I MODEL read with 0 errors
seconds was changed from 1e+100 to 15
Option for timeMode changed from cpu to elapsed
Continuous objective value is 17 - 0.12 seconds
Cgl0002I 3088 variables fixed
Cgl0003I 420 fixed, 0 tightened bounds, 1600 strengthened rows, 1051 substitutions
Cgl0003I 8 fixed, 0 tightened bounds, 679 strengthened rows, 132 substitutions
Cgl0003I 5 fixed, 0 tightened bounds, 315 strengthened rows, 132 substitutions
Cgl0003I 0 fixed, 0 tightened bounds, 10 strengthened rows, 132 substitutions
Cgl0003I 15 fixed, 0 tightened bounds, 364 strengthened rows, 0 substitutions
Cgl0003I 22 fixed, 0 tightened bounds, 160 strengthened rows, 0 substitutions
Cgl0003I 18 fixed, 0 tightened bounds, 74 strengthened rows, 0 substitutions
Cgl0003I 0 fixed, 0 tightened bounds, 39 strengthened rows, 0 substitutions
Cgl0003I 0 fixed, 0 tightened bounds, 32 strengthened rows, 200 substitutions
Cgl0003I 2 fixed, 0 tightened bounds, 23 strengthened rows, 0 substitutions
Cgl0003I 0 fixed, 0 tightened bounds, 23 strengthened rows, 0 substitutions
Cgl0003I 0 fixed, 0 tightened bounds, 22 strengthened rows, 0 substitutions
Cgl0003I 0 fixed, 0 tightened bounds, 7 strengthened rows, 0 substitutions
Cgl0003I 0 fixed, 0 tightened bounds, 5 strengthened rows, 0 substitutions
Cgl0003I 0 fixed, 0 tightened bounds, 5 strengthened rows, 0 substitutions
Cgl0003I 0 fixed, 0 tightened bounds, 5 strengthened rows, 0 substitutions
Cgl0004I processed model has 1333 rows, 1240 columns (1240 integer (1215 of which binary)) and 6039 elements
Cbc0038I Initial state - 0 integers unsatisfied sum - 9.32587e-15
Cbc0038I Solution found of 17
Cbc0038I Cleaned solution of 17
Cbc0038I Before mini branch and bound, 1240 integers at bound fixed and 0 continuous
Cbc0038I Mini branch and bound did not improve solution (0.24 seconds)
Cbc0038I After 0.24 seconds - Feasibility pump exiting with objective of 17 - took 0.00 seconds
Cbc0012I Integer solution of 17 found by feasibility pump after 0 iterations and 0 nodes (0.24 seconds)
Cbc0001I Search completed - best objective 16.9999999999997, took 0 iterations and 0 nodes (0.25 seconds)
Cbc0035I Maximum depth 0, 0 variables fixed on reduced cost
Cuts at root node changed objective from 17 to 17
Probing was tried 0 times and created 0 cuts of which 0 were active after adding rounds of cuts (0.000 seconds)
Gomory was tried 0 times and created 0 cuts of which 0 were active after adding rounds of cuts (0.000 seconds)
Knapsack was tried 0 times and created 0 cuts of which 0 were active after adding rounds of cuts (0.000 seconds)
Clique was tried 0 times and created 0 cuts of which 0 were active after adding rounds of cuts (0.000 seconds)
MixedIntegerRounding2 was tried 0 times and created 0 cuts of which 0 were active after adding rounds of cuts (0.000 seconds)
FlowCover was tried 0 times and created 0 cuts of which 0 were active after adding rounds of cuts (0.000 seconds)
TwoMirCuts was tried 0 times and created 0 cuts of which 0 were active after adding rounds of cuts (0.000 seconds)
ZeroHalf was tried 0 times and created 0 cuts of which 0 were active after adding rounds of cuts (0.000 seconds)

Result - Optimal solution found

Objective value:                17.00000000
Enumerated nodes:               0
Total iterations:               0
Time (CPU seconds):             0.36
Time (Wallclock seconds):       0.27

Option for printingOptions changed from normal to all
Total time (CPU seconds):       0.54   (Wallclock seconds):       0.34

